N = 14;
H = 6;
T = 2;

avail = array3d(1..N, 1..H, 1..T, [10, 5, 0, 8, 8, 5, 6, 2, 5, 3, 5, 1, 1, 2, 7, 10, 6, 6, 4, 2, 10, 5, 6, 4, 0, 8, 6, 1, 0, 3, 3, 1, 10, 3, 6, 3, 3, 6, 5, 7, 7, 2, 2, 2, 4, 8, 0, 0, 10, 9, 3, 8, 2, 10, 0, 6, 7, 3, 9, 3, 6, 8, 2, 3, 6, 8, 5, 10, 6, 8, 9, 2, 2, 3, 7, 4, 4, 9, 6, 5, 6, 8, 0, 4, 1, 1, 0, 6, 4, 8, 4, 3, 1, 7, 10, 10, 4, 8, 9, 6, 7, 4, 5, 7, 0, 4, 3, 8, 8, 5, 1, 1, 6, 10, 5, 0, 8, 8, 9, 0, 0, 5, 6, 6, 0, 7, 3, 5, 9, 9, 5, 1, 1, 9, 2, 10, 0, 1, 5, 9, 2, 6, 1, 5, 10, 10, 6, 7, 3, 2, 6, 1, 6, 2, 0, 1, 0, 5, 8, 7, 3, 4, 2, 2, 3, 9, 2, 10]);

r = array2d(1..H, 1..T, [5, 3, 5, 5, 5, 3, 7, 4, 6, 3, 2, 3]);
